Route 1: 0 73 31 68 51 91 65 90 6 0
Route 2: 0 7 18 96 40 45 82 29 54 21 14 0
Route 3: 0 92 23 93 59 56 85 16 79 10 0
Route 4: 0 36 63 67 74 11 48 28 46 89 52 55 0
Route 5: 0 1 37 24 98 58 49 17 69 0
Route 6: 0 78 35 72 95 41 38 5 12 34 0
Route 7: 0 86 43 42 22 99 80 94 0
Route 8: 0 2 27 50 66 60 61 100 81 47 26 70 0
Route 9: 0 84 30 64 39 62 83 87 0
Route 10: 0 19 77 25 13 97 9 33 15 75 57 20 3 0
Route 11: 0 53 76 88 44 8 71 4 32 0
